
%FILE DATA:	Soccer Computational Problem for MiniZinc Models	%
%AUTHOR:	Jack Wall	%
%CONTACT:  	116397063@umail.ucc.ie			%
%LAST UPDATE:	03/03/2020, 16:21:28						%
%DESCRIPTION: 	70 games played with 20 games left				%


n=10; %number of teams

%Games to play
games=[|7,8|8,5|1,5|8,1|2,1|5,4|6,7|10,9|2,3|4,9|6,1|10,7|9,6|10,2|10,5|8,10|3,4|7,2|7,10|4,1|];

%Initial points
iPoints=[18,27,14,19,17,16,23,15,17,20];

%POSITION CONSTRAINTS
% [|teamID, operator, position|...]
% operators index:
%  1 for =  operator
%  2 for >  operator
%  3 for >= operator
%  4 for <  operator
%  5 for <= operator
positionConstraints=[|7,3,1|2,4,3|1,5,3|];